#N canvas 556 -13 507 703 10;
#X obj 1 -16 *~;
#X obj -1 9 rfft~;
#X obj -9 38 *~;
#X obj 34 42 *~;
#X obj 5 87 sqrt~;
#X obj 5 63 +~;
#X obj 263 -41 loadbang;
#X obj 2 -57 inlet~;
#X obj 297 57 pack f f;
#X obj 15 -37 tabreceive~ \$0-hann;
#X msg 297 81 set \$1 \$2;
#X msg 261 121 resize \$1;
#X obj 259 146 s one\$0;
#X obj 258 165 s two\$0;
#X obj 254 232 table one\$0;
#X obj 254 254 table two\$0;
#X obj 255 275 table three\$0;
#X obj -55 168 tabsend~ one\$0;
#X obj 258 185 s three\$0;
#X obj 262 12 \$1;
#X obj 293 9 \$2;
#X obj 230 287 / 2;
#X obj 262 -21 t b b;
#X obj 342 -61 inlet;
#X obj 343 -40 route set;
#X obj 343 -21 unpack;
#X obj 297 101 switch~;
#N canvas 284 236 450 195 freqwindow 0;
#N canvas 0 0 450 300 (subpatch) 0;
#X array \$0freq 1024 float 2;
#X coords 0 44100 1024 0 200 140 1;
#X restore 238 17 graph;
#X obj 19 159 tabwrite \$0freq;
#X obj 19 7 inlet;
#X obj 133 95 s \$0freq;
#X msg 134 73 resize \$1;
#X obj 19 57 t f b f;
#X obj 19 81 until;
#X obj 19 104 f;
#X obj 47 106 + 1;
#X obj 19 131 expr ($f1)*(44100.0/float($f2));
#X msg 57 82 0;
#X obj 19 32 / 2;
#X connect 2 0 11 0;
#X connect 4 0 3 0;
#X connect 5 0 6 0;
#X connect 5 1 10 0;
#X connect 5 2 4 0;
#X connect 5 2 9 1;
#X connect 6 0 7 0;
#X connect 7 0 8 0;
#X connect 7 0 1 1;
#X connect 7 0 9 0;
#X connect 8 0 7 1;
#X connect 9 0 1 0;
#X connect 10 0 7 1;
#X connect 11 0 5 0;
#X restore 368 58 pd freqwindow;
#N canvas 231 171 489 192 Hann-window 0;
#N canvas 0 0 450 300 (subpatch) 0;
#X array \$0-hann 2048 float 0;
#X coords 0 1 2047 0 200 120 1;
#X restore 262 37 graph;
#X msg 97 59 resize \$1;
#X obj 97 83 s \$0-hann;
#X obj 18 126 expr ((cos($f1*6.283185))* -0.5)+0.5;
#X obj 18 151 tabwrite \$0-hann;
#X obj 18 104 / 2048;
#X obj 18 11 inlet;
#X obj 19 60 until;
#X obj 19 84 f;
#X obj 48 83 + 1;
#X msg 56 59 0;
#X obj 18 38 t f b f;
#X connect 1 0 2 0;
#X connect 3 0 4 0;
#X connect 5 0 3 0;
#X connect 6 0 11 0;
#X connect 7 0 8 0;
#X connect 8 0 9 0;
#X connect 8 0 4 1;
#X connect 8 0 5 0;
#X connect 9 0 8 1;
#X connect 10 0 8 1;
#X connect 11 0 7 0;
#X connect 11 1 10 0;
#X connect 11 2 1 0;
#X connect 11 2 5 1;
#X restore 369 80 pd Hann-window;
#N canvas 0 0 450 189 mask 0;
#N canvas 0 0 450 300 (subpatch) 0;
#X array \$0mask 2048 float 3;
#A 0 0 1 1 1 1 1 1 1 1 1 1 1 1 1 1 1 1 1 1 1 1 1 1 1 1 1 1 1 1 1 1
1 1 1 1 1 1 1 1 1 1 1 1 1 1 1 1 1 1 1 1 1 1 1 1 1 1 1 1 1 1 1 1 1 1
1 1 1 1 1 1 1 1 1 1 1 1 1 1 1 1 1 1 1 1 1 1 1 1 1 1 1 1 1 1 1 1 1 1
1 1 1 1 1 1 1 1 1 1 1 1 1 1 1 1 1 1 1 1 1 1 1 1 1 1 1 1 1 1 1 1 1 1
1 1 1 1 1 1 1 1 1 1 1 1 1 1 1 1 1 1 1 1 1 1 1 1 1 1 1 1 1 1 1 1 1 1
1 1 1 1 1 1 1 1 1 1 1 1 1 1 1 1 1 1 1 1 1 1 1 1 1 1 1 1 1 1 1 1 1 1
1 1 1 1 1 1 1 1 1 1 1 1 1 1 1 1 1 1 1 1 1 1 1 1 1 1 1 1 1 1 1 1 1 1
1 1 1 1 1 1 1 1 1 1 1 1 1 1 1 1 1 1 1 1 1 1 1 1 1 1 1 1 1 1 1 1 1 1
1 1 1 1 1 1 1 1 1 1 1 1 1 1 1 1 1 1 1 1 1 1 1 1 1 1 1 1 1 1 1 1 1 1
1 1 1 1 1 1 1 1 1 1 1 1 1 1 1 1 1 1 1 1 1 1 1 1 1 1 1 1 1 1 1 1 1 1
1 1 1 1 1 1 1 1 1 1 1 1 1 1 1 1 1 1 1 1 1 1 1 1 1 1 1 1 1 1 1 1 1 1
1 1 1 1 1 1 1 1 1 1 1 1 1 1 1 1 1 1 1 1 1 1 1 1 1 1 1 1 1 1 1 1 1 1
1 1 1 1 1 1 1 1 1 1 1 1 1 1 1 1 1 1 1 1 1 1 1 1 1 1 1 1 1 1 1 1 1 1
1 1 1 1 1 1 1 1 1 1 1 1 1 1 1 1 1 1 1 1 1 1 1 1 1 1 1 1 1 1 1 1 1 1
1 1 1 1 1 1 1 1 1 1 1 1 1 1 1 1 1 1 1 1 1 1 1 1 1 1 1 1 1 1 1 1 1 1
1 1 1 1 1 1 1 1 1 1 1 1 1 1 1 1 1 1 1 1 1 1 1 1 1 1 1 1 1 1 1 1 1 1
1 1 1 1 1 1 1 1 1 1 1 1 1 1 1 1 1 1 1 1 1 1 1 1 1 1 1 1 1 1 1 1 1 1
1 1 1 1 1 1 1 1 1 1 1 1 1 1 1 1 1 1 1 1 1 1 1 1 1 1 1 1 1 1 1 1 1 1
1 1 1 1 1 1 1 1 1 1 1 1 1 1 1 1 1 1 1 1 1 1 1 1 1 1 1 1 1 1 1 1 1 1
1 1 1 1 1 1 1 1 1 1 1 1 1 1 1 1 1 1 1 1 1 1 1 1 1 1 1 1 1 1 1 1 1 1
1 1 1 1 1 1 1 1 1 1 1 1 1 1 1 1 1 1 1 1 1 1 1 1 1 1 1 1 1 1 1 1 1 1
1 1 1 1 1 1 1 1 1 1 1 1 1 1 1 1 1 1 1 1 1 1 1 1 1 1 1 1 1 1 1 1 1 1
1 1 1 1 1 1 1 1 1 1 1 1 1 1 1 1 1 1 1 1 1 1 1 1 1 1 1 1 1 1 1 1 1 1
1 1 1 1 1 1 1 1 1 1 1 1 1 1 1 1 1 1 1 1 1 1 1 1 1 1 1 1 1 1 1 1 1 1
1 1 1 1 1 1 1 1 1 1 1 1 1 1 1 1 1 1 1 1 1 1 1 1 1 1 1 1 1 1 1 1 1 1
1 1 1 1 1 1 1 1 1 1 1 1 1 1 1 1 1 1 1 1 1 1 1 1 1 1 1 1 1 1 1 1 1 1
1 1 1 1 1 1 1 1 1 1 1 1 1 1 1 1 1 1 1 1 1 1 1 1 1 1 1 1 1 1 1 1 1 1
1 1 1 1 1 1 1 1 1 1 1 1 1 1 1 1 1 1 1 1 1 1 1 1 1 1 1 1 1 1 1 1 1 1
1 1 1 1 1 1 1 1 1 1 1 1 1 1 1 1 1 1 1 1 1 1 1 1 1 1 1 1 1 1 1 1 1 1
1 1 1 1 1 1 1 1 1 1 1 1 1 1 1 1 1;
#A 1000 1 1 1 1 1 1 1 1 1 1 1 1 1 1 1 1 1 1 1 1 1 1 1 1 1 1 1 1 1 1
1 1 1 1 1 1 1 1 1 1 1 1 1 1 1 1 1 1 1 1 1 1 1 1 1 1 1 1 1 1 1 1 1 1
1 1 1 1 1 1 1 1 1 1 1 1 1 1 1 1 1 1 1 1 1 1 1 1 1 1 1 1 1 1 1 1 1 1
1 1 1 1 1 1 1 1 1 1 1 1 1 1 1 1 1 1 1 1 1 1 1 1 1 1 1 1 1 1 1 1 1 1
1 1 1 1 1 1 1 1 1 1 1 1 1 1 1 1 1 1 1 1 1 1 1 1 1 1 1 1 1 1 1 1 1 1
1 1 1 1 1 1 1 1 1 1 1 1 1 1 1 1 1 1 1 1 1 1 1 1 1 1 1 1 1 1 1 1 1 1
1 1 1 1 1 1 1 1 1 1 1 1 1 1 1 1 1 1 1 1 1 1 1 1 1 1 1 1 1 1 1 1 1 1
1 1 1 1 1 1 1 1 1 1 1 1 1 1 1 1 1 1 1 1 1 1 1 1 1 1 1 1 1 1 1 1 1 1
1 1 1 1 1 1 1 1 1 1 1 1 1 1 1 1 1 1 1 1 1 1 1 1 1 1 1 1 1 1 1 1 1 1
1 1 1 1 1 1 1 1 1 1 1 1 1 1 1 1 1 1 1 1 1 1 1 1 1 1 1 1 1 1 1 1 1 1
1 1 1 1 1 1 1 1 1 1 1 1 1 1 1 1 1 1 1 1 1 1 1 1 1 1 1 1 1 1 1 1 1 1
1 1 1 1 1 1 1 1 1 1 1 1 1 1 1 1 1 1 1 1 1 1 1 1 1 1 1 1 1 1 1 1 1 1
1 1 1 1 1 1 1 1 1 1 1 1 1 1 1 1 1 1 1 1 1 1 1 1 1 1 1 1 1 1 1 1 1 1
1 1 1 1 1 1 1 1 1 1 1 1 1 1 1 1 1 1 1 1 1 1 1 1 1 1 1 1 1 1 1 1 1 1
1 1 1 1 1 1 1 1 1 1 1 1 1 1 1 1 1 1 1 1 1 1 1 1 1 1 1 1 1 1 1 1 1 1
1 1 1 1 1 1 1 1 1 1 1 1 1 1 1 1 1 1 1 1 1 1 1 1 1 1 1 1 1 1 1 1 1 1
1 1 1 1 1 1 1 1 1 1 1 1 1 1 1 1 1 1 1 1 1 1 1 1 1 1 1 1 1 1 1 1 1 1
1 1 1 1 1 1 1 1 1 1 1 1 1 1 1 1 1 1 1 1 1 1 1 1 1 1 1 1 1 1 1 1 1 1
1 1 1 1 1 1 1 1 1 1 1 1 1 1 1 1 1 1 1 1 1 1 1 1 1 1 1 1 1 1 1 1 1 1
1 1 1 1 1 1 1 1 1 1 1 1 1 1 1 1 1 1 1 1 1 1 1 1 1 1 1 1 1 1 1 1 1 1
1 1 1 1 1 1 1 1 1 1 1 1 1 1 1 1 1 1 1 1 1 1 1 1 1 1 1 1 1 1 1 1 1 1
1 1 1 1 1 1 1 1 1 1 1 1 1 1 1 1 1 1 1 1 1 1 1 1 1 1 1 1 1 1 1 1 1 1
1 1 1 1 1 1 1 1 1 1 1 1 1 1 1 1 1 1 1 1 1 1 1 1 1 1 1 1 1 1 1 1 1 1
1 1 1 1 1 1 1 1 1 1 1 1 1 1 1 1 1 1 1 1 1 1 1 1 1 1 1 1 1 1 1 1 1 1
1 1 1 1 1 1 1 1 1 1 1 1 1 1 1 1 1 1 1 1 1 1 1 1 1 1 1 1 1 1 1 1 1 1
1 1 1 1 1 1 1 1 1 1 1 1 1 1 1 1 1 1 1 1 1 1 1 1 1 1 1 1 1 1 1 1 1 1
1 1 1 1 1 1 1 1 1 1 1 1 1 1 1 1 1 1 1 1 1 1 1 1 1 1 1 1 1 1 1 1 1 1
1 1 1 1 1 1 1 1 1 1 1 1 1 1 1 1 1 1 1 1 1 1 1 1 1 1 1 1 1 1 1 1 1 1
1 1 1 1 1 1 1 1 1 1 1 1 1 1 1 1 1 1 1 1 1 1 1 1 1 1 1 1 1 1 1 1 1 1
1 1 1 1 1 1 1 1 1 1 1 1 1 1 1 1 1 1;
#A 2000 1 1 1 1 1 1 1 1 1 1 1 1 1 1 1 1 1 1 1 1 1 1 1 1 1 1 1 1 1 1
1 1 1 1 1 1 1 1 1 1 1 1 1 1 1 1 1 1;
#X coords 0 1 2048 -1 200 140 1;
#X restore 218 42 graph;
#X obj 27 38 inlet;
#X obj 27 86 s \$0mask;
#X msg 27 59 resize \$1 \, const 1 \, 0 0;
#X connect 1 0 3 0;
#X connect 3 0 2 0;
#X restore 369 102 pd mask;
#X obj 260 206 s four\$0;
#X obj 257 294 table four\$0;
#X obj 2 271 *~;
#X obj 62 120 tabreceive~ \$0freq;
#X obj -54 143 rpole~ 1;
#X obj 112 156 rpole~ 1;
#X obj 112 185 tabsend~ two\$0;
#X obj 61 325 rpole~ 1;
#X obj 0 344 rpole~ 1;
#X obj 62 351 tabsend~ three\$0;
#X obj -1 372 tabsend~ four\$0;
#X obj -75 413 t b b b b b;
#X msg 79 430 clear;
#X obj -75 384 bang~;
#X obj 16 618 outlet;
#X obj 192 527 /;
#X obj 61 271 -~;
#X obj 61 295 *~;
#X obj 230 385 -1;
#X obj 191 476 f;
#X obj 192 502 tabread three\$0;
#X obj 16 593 /;
#X obj -33 573 -;
#X obj 17 530 /;
#X obj 17 484 f;
#X obj 17 506 tabread one\$0;
#X obj 76 247 /;
#X obj 76 200 f;
#X obj 76 223 tabread two\$0;
#X obj -75 531 /;
#X obj -75 485 f;
#X floatatom 189 538 5 0 0 0 - - -;
#X obj -75 507 tabread four\$0;
#X obj 102 533 /;
#X obj 102 487 f;
#X obj 102 509 tabread two\$0;
#X obj -18 448 t b b;
#X obj 3 565 *;
#X connect 0 0 1 0;
#X connect 1 0 2 0;
#X connect 1 0 2 1;
#X connect 1 1 3 0;
#X connect 1 1 3 1;
#X connect 2 0 5 0;
#X connect 3 0 5 1;
#X connect 4 0 32 0;
#X connect 4 0 34 0;
#X connect 5 0 4 0;
#X connect 6 0 22 0;
#X connect 7 0 0 0;
#X connect 8 0 10 0;
#X connect 9 0 0 1;
#X connect 10 0 26 0;
#X connect 11 0 12 0;
#X connect 11 0 13 0;
#X connect 11 0 18 0;
#X connect 11 0 30 0;
#X connect 19 0 8 0;
#X connect 19 0 21 0;
#X connect 19 0 27 0;
#X connect 19 0 28 0;
#X connect 19 0 29 0;
#X connect 19 0 11 0;
#X connect 20 0 8 1;
#X connect 21 0 45 1;
#X connect 21 0 48 0;
#X connect 21 0 53 1;
#X connect 21 0 56 1;
#X connect 21 0 59 1;
#X connect 21 0 63 1;
#X connect 22 0 19 0;
#X connect 22 1 20 0;
#X connect 23 0 24 0;
#X connect 24 0 25 0;
#X connect 24 1 26 0;
#X connect 25 0 19 0;
#X connect 25 1 20 0;
#X connect 32 0 38 0;
#X connect 33 0 32 1;
#X connect 33 0 35 0;
#X connect 33 0 46 0;
#X connect 34 0 17 0;
#X connect 35 0 36 0;
#X connect 37 0 39 0;
#X connect 38 0 40 0;
#X connect 41 0 60 0;
#X connect 41 1 66 0;
#X connect 41 2 49 0;
#X connect 41 3 57 0;
#X connect 41 4 42 0;
#X connect 42 0 38 0;
#X connect 42 0 37 0;
#X connect 42 0 35 0;
#X connect 42 0 34 0;
#X connect 43 0 41 0;
#X connect 45 0 51 1;
#X connect 46 0 47 1;
#X connect 46 0 47 0;
#X connect 47 0 37 0;
#X connect 48 0 49 1;
#X connect 48 0 54 1;
#X connect 48 0 57 1;
#X connect 48 0 60 1;
#X connect 48 0 64 1;
#X connect 49 0 50 0;
#X connect 50 0 45 0;
#X connect 51 0 44 0;
#X connect 52 0 51 0;
#X connect 53 0 67 0;
#X connect 54 0 55 0;
#X connect 55 0 53 0;
#X connect 56 0 46 1;
#X connect 57 0 58 0;
#X connect 58 0 56 0;
#X connect 59 0 52 0;
#X connect 60 0 62 0;
#X connect 62 0 59 0;
#X connect 63 0 67 1;
#X connect 64 0 65 0;
#X connect 65 0 63 0;
#X connect 66 0 54 0;
#X connect 66 1 64 0;
#X connect 67 0 52 1;
